c
c This is glucose 2.1 --  based on MiniSAT (Many thanks to MiniSAT team)
c
c WARNING: for repeatability, setting FPU to use double precision
c ========================================[ Problem Statistics ]===========================================
c |                                                                                                       |
c |  Number of variables:        176431                                                                   |
c |  Number of clauses:          405250                                                                   |
c |  Parse time:                   0.14 s                                                                 |
c |                                                                                                       |
c ========================================[ MAGIC CONSTANTS ]==============================================
c | Constants are supposed to work well together :-)                                                      |
c | however, if you find better choices, please let us known...                                           |
c |-------------------------------------------------------------------------------------------------------|
c |                                |                                |                                     |
c | - Restarts:                    | - Reduce Clause DB:            | - Minimize Asserting:               |
c |   * LBD Queue    :     50      |   * First     :   4000         |    * size <  30                     |
c |   * Trail  Queue :   5000      |   * Inc       :    300         |    * lbd  <   6                     |
c |   * K            :   0.80      |   * Special   :   1000         |                                     |
c |   * R            :   1.40      |   * Protected :  (lbd)< 30     |                                     |
c |                                |                                |                                     |
c ==================================[ Search Statistics (every  10000 conflicts) ]=========================
c |                                                                                                       |
c |          RESTARTS           |          ORIGINAL         |              LEARNT              | Progress |
c |       NB   Blocked  Avg Cfc |    Vars  Clauses Literals |   Red   Learnts    LBD2  Removed |          |
c =========================================================================================================
c |       52         0      192 |   96092   395650   888192 |     1     8004      264     1995 | 45.536 % |
c |       94         0      212 |   92776   394622   884982 |     3     6936      407    13030 | 47.415 % |
c =========================================================================================================
c restarts              : 94 (217 conflicts in avg)
c blocked restarts      : 0 (multiple: 0) 
c last block at restart : 0
c nb ReduceDB           : 3
c nb removed Clauses    : 13030
c nb learnts DL2        : 425
c nb learnts size 2     : 120
c nb learnts size 1     : 9
c conflicts             : 20433          (3315 /sec)
c decisions             : 58061          (0.00 % random) (9419 /sec)
c propagations          : 30066367       (4877432 /sec)
c conflict literals     : 1772047        (32.19 % deleted)
c nb reduced Clauses    : 208
c CPU time              : 6.16439 s
s UNSATISFIABLE
